22 69
6 12
6 18
7 17
6 21
7 20
4 12
5 13
3 13
5 10
8 9
17 21
9 17
11 14
2 5
0 8
0 11
11 17
2 14
13 14
1 12
0 20
10 21
13 17
1 21
6 11
2 20
7 10
7 16
6 17
3 6
3 12
3 18
8 11
0 4
2 15
2 7
9 19
1 11
11 19
8 20
19 20
10 17
2 13
2 19
1 17
7 9
16 21
15 19
6 16
16 18
18 21
7 18
12 14
3 11
3 14
3 17
5 14
14 20
0 9
9 12
10 13
5 20
11 21
10 19
1 16
0 18
2 18
6 9
16 17
